
Gurobi 9.5.2 (win64) logging started Mon Mar 27 20:43:53 2023

Set parameter LogFile to value "2023-03-27_20hr-25min-09sec/Nodes20_Arcs25_LocNodes15/Formulation-1Instance-2.log"
Set parameter TimeLimit to value 600
Set parameter IntFeasTol to value 1e-09
Set parameter DualReductions to value 0
Set parameter NonConvex to value 2
Gurobi Optimizer version 9.5.2 build v9.5.2rc0 (win64)
Thread count: 4 physical cores, 8 logical processors, using up to 8 threads
Optimize a model with 81 rows, 140 columns and 290 nonzeros
Model fingerprint: 0xe3ffce01
Model has 15 quadratic objective terms
Model has 45 SOS constraints
Variable types: 125 continuous, 15 integer (15 binary)
Coefficient statistics:
  Matrix range     [2e-03, 2e+02]
  Objective range  [3e+00, 2e+02]
  QObjective range [2e+00, 2e+00]
  Bounds range     [1e+00, 1e+00]
  RHS range        [6e-02, 1e+03]
Presolve removed 4 rows and 5 columns
Presolve time: 0.00s
Presolved: 108 rows, 152 columns, 355 nonzeros
Presolved model has 42 SOS constraint(s)
Presolved model has 15 bilinear constraint(s)
Variable types: 137 continuous, 15 integer (15 binary)

Root relaxation: unbounded, 70 iterations, 0.00 seconds (0.00 work units)

    Nodes    |    Current Node    |     Objective Bounds      |     Work
 Expl Unexpl |  Obj  Depth IntInf | Incumbent    BestBd   Gap | It/Node Time

     0     0  postponed    0               -          -      -     -    0s
     0     0  postponed    0               -          -      -     -    0s
Exploring 100 nodes in MinRel heuristic
No solution found by MinRel heuristic
     0     2  postponed    0               -          -      -     -    0s
Exploring 10000 nodes in MinRel heuristic
H 6746   602                    -7843.819525          -      -   5.9    1s
Feasible solution found by MinRel heuristic at node 303
 29226   745 infeasible   29      -7843.8195          -      -   4.6    5s
H53481   940                    -7683.819525          -      -   4.2    9s
 57475   849  postponed   28      -7683.8195          -      -   4.3   10s
H65471   777                    350610.15583          -      -   4.4   11s
H65471   777                    372194.45731          -      -   4.4   11s
H66759   644                    372357.45731          -      -   4.4   11s
H75963   524                    488408.06780          -      -   4.6   13s
*77036   535              44    489592.86563          -      -   4.6   13s
*77040   535              45    497257.82622          -      -   4.6   13s
H77044   535                    497415.98389          -      -   4.6   13s
 83069   538 infeasible   31      497415.984          -      -   4.6   15s
*102378   131              44    498236.51873          -      -   4.8   18s
*102383   131              44    498325.86307          -      -   4.8   18s
*103347   164              45    498433.66055          -      -   4.8   19s
*103350   164              46    498603.97368          -      -   4.8   19s
*103356   164              47    498774.42382          -      -   4.8   19s
*103396   164              65    498828.65549          -      -   4.8   19s
*103402   164              65    498828.65561          -      -   4.8   19s
*104379    93              52    498829.64403          -      -   4.8   19s
*104562    93              49    498836.35941          -      -   4.7   19s
*104597    93              50    498844.22264          -      -   4.7   19s
*104598    93              50    498844.84214          -      -   4.7   19s
*104601    93              51    498845.08476          -      -   4.7   19s
*104602    93              51    498845.27916          -      -   4.7   19s
*104605    93              52    498845.35251          -      -   4.7   19s
*104607    93              53    498845.38497          -      -   4.7   19s
*104608    93              53    498845.41733          -      -   4.7   19s
*104612    93              54    498845.42973          -      -   4.7   19s
*104614    93              55    498845.43602          -      -   4.7   19s
*104615    93              55    498845.44298          -      -   4.7   19s
*104619    93              56    498845.44569          -      -   4.7   19s
*104620    93              56    498845.44876          -      -   4.7   19s
*104623    93              57    498845.45016          -      -   4.7   19s
*104624    93              57    498845.45176          -      -   4.7   19s
*104627    93              58    498845.45249          -      -   4.7   19s
*104628    93              58    498845.45334          -      -   4.7   19s
*104631    93              59    498845.45373          -      -   4.7   19s
*104632    93              59    498845.45418          -      -   4.7   19s
H104633    93                    498845.45462          -      -   4.7   19s
*104642    93              62    498845.45467          -      -   4.7   19s
*104643    93              62    498845.45473          -      -   4.7   19s
*104647    93              63    498845.45479          -      -   4.7   19s
*104662    93              66    498845.45485          -      -   4.7   19s
*104693    93              65    498845.50817          -      -   4.7   19s
*104751    93              65    498845.55408          -      -   4.7   19s
*105444   132              66    498845.55428 505734.121  1.38%   4.7   19s
*105453   132              58    498845.55984 505734.121  1.38%   4.7   19s

Explored 106456 nodes (498055 simplex iterations) in 19.54 seconds (3.01 work units)
Thread count was 8 (of 8 available processors)

Solution count 10: 498846 498846 498846 ... 498845

Optimal solution found (tolerance 1.00e-04)
Best objective 4.988455598357e+05, best bound 4.988456784770e+05, gap 0.0000%

User-callback calls 213496, time in user-callback 2.13 sec
